2,3
3,9
5,7
7,9
10,1
12,3
14,6
16,8
19,0
21,3
23,5
25,7
27,9
30,1
32,3
34,6
36,8
39,0
41,2
43,4
45,6
46,3
46,3
46,3
46,3
46,3
46,3
46,3
46,3
46,3
46,3
46,3
46,3
46,3
46,3
46,3
46,3
46,3
46,3
46,3
46,3
46,3
0,0
0,0
